26 100000
57 65610
27 50957
28 11949
23 7151
85 79262
63 53392
23 62424
5 38094
78 29573
95 17646
78 37849
49 94040
92 31645
3 89747
58 62872
94 13675
63 9041
39 56946
83 77471
49 20490
85 69306
65 52603
94 62480
45 60435
91 60517
36 5677
